(declare-fun ExpandObjSwitcher () Real)
(declare-fun CreateAsClass () Bool)
(declare-fun ExpandObjSwitcher_2 () Real)
(assert (= ExpandObjSwitcher 8.0))
(assert CreateAsClass)
(assert (= ExpandObjSwitcher_2 0.0))
(assert false)
(check-sat)
